(set-logic ALL)
(declare-const n_VAR Int)
(assert (not (= n_VAR 0)))
(assert (not (= n_VAR 1)))
(assert (< 0 n_VAR))
(assert (< 1 n_VAR))
(assert (< 2 n_VAR))
(assert (< 3 n_VAR))
(assert (< 4 n_VAR))
(assert (< 5 n_VAR))
(assert (< 6 n_VAR))
(assert (< 7 n_VAR))
(assert (< 8 n_VAR))
(assert (< 9 n_VAR))
(assert (< 10 n_VAR))
(assert (< 11 n_VAR))
(assert (< 12 n_VAR))
(assert (< 13 n_VAR))
(assert (< 14 n_VAR))
(assert (< 15 n_VAR))
(assert (< 16 n_VAR))
(assert (< 17 n_VAR))
(assert (< 18 n_VAR))
(assert (< 19 n_VAR))
(assert (< 20 n_VAR))
(assert (< 21 n_VAR))
(assert (< 22 n_VAR))
(assert (< 23 n_VAR))
(assert (< 24 n_VAR))
(assert (< 25 n_VAR))
(assert (< 26 n_VAR))
(assert (< 27 n_VAR))
(assert (< 28 n_VAR))
(assert (< 29 n_VAR))
(assert (< 30 n_VAR))
(assert (< 31 n_VAR))
(assert (< 32 n_VAR))
(assert (< 33 n_VAR))
(assert (< 34 n_VAR))
(assert (< 35 n_VAR))
(assert (< 36 n_VAR))
(assert (< 37 n_VAR))
(assert (< 38 n_VAR))
(assert (< 39 n_VAR))
(assert (< 40 n_VAR))
(assert (< 41 n_VAR))
(assert (< 42 n_VAR))
(assert (< 43 n_VAR))
(assert (< 44 n_VAR))
(assert (< 45 n_VAR))
(assert (< 46 n_VAR))
(assert (< 47 n_VAR))
(assert (< 48 n_VAR))
(assert (< 49 n_VAR))
(assert (< 50 n_VAR))
(assert (< 51 n_VAR))
(assert (< 52 n_VAR))
(assert (< 53 n_VAR))
(assert (< 54 n_VAR))
(assert (< 55 n_VAR))
(assert (< 56 n_VAR))
(assert (< 57 n_VAR))
(assert (< 58 n_VAR))
(assert (< 59 n_VAR))
(assert (< 60 n_VAR))
(assert (< 61 n_VAR))
(assert (< 62 n_VAR))
(assert (< 63 n_VAR))
(assert (< 64 n_VAR))
(assert (< 65 n_VAR))
(assert (< 66 n_VAR))
(assert (< 67 n_VAR))
(assert (< 68 n_VAR))
(assert (< 69 n_VAR))
(assert (< 70 n_VAR))
(assert (< 71 n_VAR))
(assert (< 72 n_VAR))
(assert (< 73 n_VAR))
(assert (< 74 n_VAR))
(assert (< 75 n_VAR))
(assert (< 76 n_VAR))
(assert (< 77 n_VAR))
(assert (< 78 n_VAR))
(assert (< 79 n_VAR))
(assert (< 80 n_VAR))
(assert (< 81 n_VAR))
(assert (< 82 n_VAR))
(assert (< 83 n_VAR))
(assert (< 84 n_VAR))
(assert (< 85 n_VAR))
(assert (< 86 n_VAR))
(assert (< 87 n_VAR))
(assert (< 88 n_VAR))
(assert (< 89 n_VAR))
(assert (< 90 n_VAR))
(assert (< 91 n_VAR))
(assert (< 92 n_VAR))
(assert (< 93 n_VAR))
(assert (< 94 n_VAR))
(assert (< 95 n_VAR))
(assert (< 96 n_VAR))
(assert (< 97 n_VAR))
(assert (< 98 n_VAR))
(assert (< 99 n_VAR))
(assert (< 100 n_VAR))
(assert (< 101 n_VAR))
(assert (< 102 n_VAR))
(assert (< 103 n_VAR))
(assert (< 104 n_VAR))
(assert (< 105 n_VAR))
(assert (< 106 n_VAR))
(assert (< 107 n_VAR))
(assert (< 108 n_VAR))
(assert (< 109 n_VAR))
(assert (< 110 n_VAR))
(assert (< 111 n_VAR))
(assert (< 112 n_VAR))
(assert (< 113 n_VAR))
(assert (< 114 n_VAR))
(assert (< 115 n_VAR))
(assert (< 116 n_VAR))
(assert (< 117 n_VAR))
(assert (< 118 n_VAR))
(assert (< 119 n_VAR))
(assert (< 120 n_VAR))
(assert (< 121 n_VAR))
(assert (< 122 n_VAR))
(assert (< 123 n_VAR))
(assert (< 124 n_VAR))
(assert (< 125 n_VAR))
(assert (< 126 n_VAR))
(assert (< 127 n_VAR))
(assert (< 128 n_VAR))
(assert (< 129 n_VAR))
(assert (< 130 n_VAR))
(assert (< 131 n_VAR))
(assert (< 132 n_VAR))
(assert (< 133 n_VAR))
(assert (< 134 n_VAR))
(assert (< 135 n_VAR))
(assert (< 136 n_VAR))
(assert (< 137 n_VAR))
(assert (< 138 n_VAR))
(assert (< 139 n_VAR))
(assert (< 140 n_VAR))
(assert (< 141 n_VAR))
(assert (< 142 n_VAR))
(assert (< 143 n_VAR))
(assert (< 144 n_VAR))
(assert (< 145 n_VAR))
(assert (< 146 n_VAR))
(assert (< 147 n_VAR))
(assert (< 148 n_VAR))
(assert (< 149 n_VAR))
(assert (< 150 n_VAR))
(assert (< 151 n_VAR))
(assert (< 152 n_VAR))
(assert (< 153 n_VAR))
(assert (< 154 n_VAR))
(assert (< 155 n_VAR))
(assert (< 156 n_VAR))
(assert (< 157 n_VAR))
(assert (< 158 n_VAR))
(assert (< 159 n_VAR))
(assert (< 160 n_VAR))
(assert (< 161 n_VAR))
(assert (< 162 n_VAR))
(assert (< 163 n_VAR))
(assert (< 164 n_VAR))
(assert (< 165 n_VAR))
(assert (< 166 n_VAR))
(assert (< 167 n_VAR))
(assert (< 168 n_VAR))
(assert (< 169 n_VAR))
(assert (< 170 n_VAR))
(assert (< 171 n_VAR))
(assert (< 172 n_VAR))
(assert (< 173 n_VAR))
(assert (< 174 n_VAR))
(assert (< 175 n_VAR))
(assert (< 176 n_VAR))
(assert (< 177 n_VAR))
(assert (< 178 n_VAR))
(assert (< 179 n_VAR))
(assert (< 180 n_VAR))
(assert (< 181 n_VAR))
(assert (< 182 n_VAR))
(assert (< 183 n_VAR))
(assert (< 184 n_VAR))
(assert (< 185 n_VAR))
(assert (< 186 n_VAR))
(assert (< 187 n_VAR))
(assert (< 188 n_VAR))
(assert (< 189 n_VAR))
(assert (< 190 n_VAR))
(assert (< 191 n_VAR))
(assert (< 192 n_VAR))
(assert (< 193 n_VAR))
(assert (< 194 n_VAR))
(assert (< 195 n_VAR))
(assert (< 196 n_VAR))
(assert (< 197 n_VAR))
(assert (< 198 n_VAR))
(assert (< 199 n_VAR))
(assert (< 200 n_VAR))
(assert (< 201 n_VAR))
(assert (< 202 n_VAR))
(assert (< 203 n_VAR))
(assert (< 204 n_VAR))
(assert (< 205 n_VAR))
(assert (< 206 n_VAR))
(assert (< 207 n_VAR))
(assert (< 208 n_VAR))
(assert (< 209 n_VAR))
(assert (< 210 n_VAR))
(assert (< 211 n_VAR))
(assert (< 212 n_VAR))
(assert (< 213 n_VAR))
(assert (< 214 n_VAR))
(assert (< 215 n_VAR))
(assert (< 216 n_VAR))
(assert (< 217 n_VAR))
(assert (< 218 n_VAR))
(assert (< 219 n_VAR))
(assert (< 220 n_VAR))
(assert (< 221 n_VAR))
(assert (< 222 n_VAR))
(assert (< 223 n_VAR))
(assert (< 224 n_VAR))
(assert (< 225 n_VAR))
(assert (< 226 n_VAR))
(assert (< 227 n_VAR))
(assert (< 228 n_VAR))
(assert (< 229 n_VAR))
(assert (< 230 n_VAR))
(assert (< 231 n_VAR))
(assert (< 232 n_VAR))
(assert (< 233 n_VAR))
(assert (< 234 n_VAR))
(assert (< 235 n_VAR))
(assert (< 236 n_VAR))
(assert (< 237 n_VAR))
(assert (< 238 n_VAR))
(assert (< 239 n_VAR))
(assert (< 240 n_VAR))
(assert (< 241 n_VAR))
(assert (< 242 n_VAR))
(assert (< 243 n_VAR))
(assert (< 244 n_VAR))
(assert (< 245 n_VAR))
(assert (< 246 n_VAR))
(assert (< 247 n_VAR))
(assert (< 248 n_VAR))
(assert (< 249 n_VAR))
(assert (< 250 n_VAR))
(assert (< 251 n_VAR))
(assert (< 252 n_VAR))
(assert (< 253 n_VAR))
(assert (< 254 n_VAR))
(assert (< 255 n_VAR))
(assert (< 256 n_VAR))
(assert (< 257 n_VAR))
(assert (< 258 n_VAR))
(assert (< 259 n_VAR))
(assert (< 260 n_VAR))
(assert (< 261 n_VAR))
(assert (< 262 n_VAR))
(assert (< 263 n_VAR))
(assert (< 264 n_VAR))
(check-sat)
(get-value (n_VAR))
